Geographic Exponential Decay
80 206 272 265 183 41 123 186 19 262 266 54 24 140 103 5 256 0 317 315 44 86 217 211 181 15 284 269 251 260 29 173 182 11 200 196 236 132 204 165 274 138 227 32 286 149 308 36 38 301 187 34 37 148 112 118 80 70 243 152 316 258 125 72 20 113 110 31 218 102 21 170 16 290 318 88 210 106 280 145 238
p edge 320 320
e 0 170 68.0
e 0 20 38.0
e 0 173 70.0
e 1 61 2.0
e 1 0 80.0
e 2 18 4.0
e 2 1 2.0
e 3 129 1.0
e 3 2 1.0
e 4 121 1.0
e 4 3 1.0
e 5 24 51.0
e 5 92 21.0
e 5 81 21.0
e 5 4 79.0
e 6 59 3.0
e 6 5 58.0
e 7 179 3.0
e 7 6 4.0
e 8 170 45.0
e 9 316 97.0
e 10 239 1.0
e 10 7 1.0
e 11 205 67.0
e 11 301 8.0
e 11 302 23.0
e 11 10 14.0
e 12 170 73.0
e 13 109 1.0
e 13 11 96.0
e 14 255 1.0
e 14 13 2.0
e 15 166 97.0
e 15 94 17.0
e 15 296 28.0
e 15 14 90.0
e 16 207 51.0
e 16 254 48.0
e 16 293 49.0
e 16 15 60.0
e 17 101 1.0
e 17 16 59.0
e 19 140 40.0
e 19 181 43.0
e 19 162 45.0
e 19 17 64.0
e 20 143 28.0
e 20 294 39.0
e 21 52 93.0
e 21 245 99.0
e 21 123 24.0
e 21 19 3.0
e 22 100 1.0
e 22 21 29.0
e 23 24 12.0
e 24 34 41.0
e 25 44 59.0
e 25 22 1.0
e 26 27 9.0
e 26 25 1.0
e 28 183 25.0
e 29 274 31.0
e 29 30 96.0
e 29 31 40.0
e 29 26 48.0
e 31 243 39.0
e 31 93 51.0
e 32 105 62.0
e 32 171 4.0
e 32 314 92.0
e 32 29 36.0
e 33 77 1.0
e 33 32 9.0
e 34 315 43.0
e 34 62 21.0
e 35 305 1.0
e 35 33 1.0
e 36 257 22.0
e 36 286 55.0
e 36 288 34.0
e 36 35 9.0
e 37 115 85.0
e 37 289 72.0
e 37 196 44.0
e 37 36 73.0
e 38 251 80.0
e 38 175 100.0
e 38 39 1.0
e 38 37 72.0
e 40 50 42.0
e 40 68 2.0
e 40 38 11.0
e 41 241 63.0
e 41 81 10.0
e 41 151 4.0
e 42 238 98.0
e 43 303 3.0
e 43 40 23.0
e 44 185 90.0
e 44 45 18.0
e 46 188 5.0
e 46 43 1.0
e 47 297 3.0
e 47 46 1.0
e 48 190 1.0
e 48 47 1.0
e 49 246 10.0
e 49 48 17.0
e 51 209 1.0
e 51 49 16.0
e 53 165 99.0
e 53 51 1.0
e 54 242 29.0
e 54 295 86.0
e 54 268 24.0
e 54 53 94.0
e 55 66 1.0
e 55 54 18.0
e 56 285 4.0
e 56 55 12.0
e 57 199 4.0
e 57 56 1.0
e 58 318 98.0
e 60 63 3.0
e 60 57 1.0
e 64 122 2.0
e 64 60 6.0
e 65 290 12.0
e 65 64 4.0
e 67 141 1.0
e 67 65 1.0
e 69 149 96.0
e 69 67 1.0
e 70 306 99.0
e 70 183 15.0
e 70 103 35.0
e 71 72 52.0
e 71 69 1.0
e 72 304 61.0
e 72 273 21.0
e 73 74 1.0
e 73 71 3.0
e 75 298 9.0
e 75 73 2.0
e 76 78 1.0
e 76 75 5.0
e 79 80 56.0
e 80 290 53.0
e 80 82 5.0
e 83 84 10.0
e 83 76 5.0
e 85 86 80.0
e 86 87 20.0
e 86 272 87.0
e 88 89 18.0
e 88 153 50.0
e 88 140 62.0
e 90 198 22.0
e 90 83 3.0
e 91 268 32.0
e 95 200 37.0
e 96 212 2.0
e 96 90 3.0
e 97 98 2.0
e 97 96 4.0
e 99 102 7.0
e 102 103 3.0
e 102 104 34.0
e 103 176 86.0
e 106 107 97.0
e 106 221 75.0
e 106 108 93.0
e 106 97 78.0
e 110 125 48.0
e 110 152 99.0
e 110 214 72.0
e 110 106 3.0
e 111 195 6.0
e 111 110 79.0
e 112 252 81.0
e 112 243 56.0
e 112 113 82.0
e 113 161 93.0
e 113 247 50.0
e 114 116 9.0
e 114 111 3.0
e 117 266 39.0
e 118 263 28.0
e 118 186 96.0
e 118 123 88.0
e 119 120 3.0
e 119 114 3.0
e 123 307 14.0
e 124 125 62.0
e 125 142 70.0
e 126 138 75.0
e 126 119 8.0
e 127 128 5.0
e 127 126 2.0
e 130 213 1.0
e 130 127 1.0
e 131 208 2.0
e 131 130 6.0
e 132 133 37.0
e 132 134 20.0
e 132 192 45.0
e 132 131 90.0
e 135 248 1.0
e 135 132 84.0
e 136 203 2.0
e 136 135 3.0
e 137 299 5.0
e 137 136 2.0
e 138 139 95.0
e 138 189 15.0
e 140 180 27.0
e 144 284 9.0
e 145 308 24.0
e 145 146 47.0
e 145 183 53.0
e 147 235 4.0
e 147 137 5.0
e 148 149 30.0
e 148 150 74.0
e 148 177 53.0
e 149 230 83.0
e 152 154 26.0
e 152 155 74.0
e 156 157 2.0
e 156 147 3.0
e 158 159 2.0
e 158 156 1.0
e 160 163 1.0
e 160 158 2.0
e 164 165 37.0
e 165 167 18.0
e 168 169 4.0
e 168 160 1.0
e 172 236 7.0
e 173 174 74.0
e 173 178 58.0
e 181 262 19.0
e 181 182 46.0
e 182 300 93.0
e 182 191 87.0
e 184 186 19.0
e 186 223 84.0
e 187 237 3.0
e 187 193 29.0
e 187 194 78.0
e 187 168 97.0
e 196 197 9.0
e 196 200 93.0
e 200 201 69.0
e 202 210 62.0
e 204 206 13.0
e 204 210 13.0
e 204 308 39.0
e 206 210 38.0
e 206 211 72.0
e 211 215 75.0
e 211 216 23.0
e 217 218 58.0
e 217 219 8.0
e 217 220 36.0
e 217 187 10.0
e 218 222 11.0
e 218 224 31.0
e 225 243 50.0
e 226 227 48.0
e 226 217 87.0
e 227 228 40.0
e 227 229 79.0
e 231 232 5.0
e 231 226 1.0
e 233 234 2.0
e 233 231 1.0
e 236 238 30.0
e 236 240 38.0
e 238 266 88.0
e 244 249 2.0
e 244 233 1.0
e 250 251 16.0
e 251 253 44.0
e 256 258 82.0
e 256 310 1.0
e 256 259 80.0
e 258 260 18.0
e 258 308 45.0
e 260 261 79.0
e 260 262 12.0
e 262 264 77.0
e 265 266 95.0
e 265 267 52.0
e 265 301 67.0
e 269 270 88.0
e 269 271 13.0
e 269 272 25.0
e 272 274 40.0
e 274 275 60.0
e 276 277 6.0
e 276 244 3.0
e 278 279 7.0
e 278 276 7.0
e 280 281 29.0
e 280 282 72.0
e 280 315 85.0
e 283 284 32.0
e 284 286 58.0
e 286 287 68.0
e 290 291 44.0
e 292 301 79.0
e 309 311 3.0
e 309 278 6.0
e 312 313 2.0
e 312 309 1.0
e 315 316 48.0
e 316 317 42.0
e 317 318 53.0
e 317 319 56.0
